\Problem name: of7_18_9.lp
\ILP for trying to color the edges of an overfull graph on 18 nodes with 7 
\colors.
\Infeasible problem.

Minimize
obj:  x0 + x1 + x2 + x3 + x4 + x5 + x6 + x7 + x8 + x9
 + x10 + x11 + x12 + x13 + x14 + x15 + x16 + x17 + x18 + x19
 + x20 + x21 + x22 + x23 + x24 + x25 + x26 + x27 + x28 + x29
 + x30 + x31 + x32 + x33 + x34 + x35 + x36 + x37 + x38 + x39
 + x40 + x41 + x42 + x43 + x44 + x45 + x46 + x47 + x48 + x49
 + x50 + x51 + x52 + x53 + x54 + x55 + x56 + x57 + x58 + x59
 + x60 + x61 + x62 + x63 + x64 + x65 + x66 + x67 + x68 + x69
 + x70 + x71 + x72 + x73 + x74 + x75 + x76 + x77 + x78 + x79
 + x80 + x81 + x82 + x83 + x84 + x85 + x86 + x87 + x88 + x89
 + x90 + x91 + x92 + x93 + x94 + x95 + x96 + x97 + x98 + x99
 + x100 + x101 + x102 + x103 + x104 + x105 + x106 + x107 + x108 + x109
 + x110 + x111 + x112 + x113 + x114 + x115 + x116 + x117 + x118 + x119
 + x120 + x121 + x122 + x123 + x124 + x125 + x126 + x127 + x128 + x129
 + x130 + x131 + x132 + x133 + x134 + x135 + x136 + x137 + x138 + x139
 + x140 + x141 + x142 + x143 + x144 + x145 + x146 + x147 + x148 + x149
 + x150 + x151 + x152 + x153 + x154 + x155 + x156 + x157 + x158 + x159
 + x160 + x161 + x162 + x163 + x164 + x165 + x166 + x167 + x168 + x169
 + x170 + x171 + x172 + x173 + x174 + x175 + x176 + x177 + x178 + x179
 + x180 + x181 + x182 + x183 + x184 + x185 + x186 + x187 + x188 + x189
 + x190 + x191 + x192 + x193 + x194 + x195 + x196 + x197 + x198 + x199
 + x200 + x201 + x202 + x203 + x204 + x205 + x206 + x207 + x208 + x209
 + x210 + x211 + x212 + x213 + x214 + x215 + x216 + x217 + x218 + x219
 + x220 + x221 + x222 + x223 + x224 + x225 + x226 + x227 + x228 + x229
 + x230 + x231 + x232 + x233 + x234 + x235 + x236 + x237 + x238 + x239
 + x240 + x241 + x242 + x243 + x244 + x245 + x246 + x247 + x248 + x249
 + x250 + x251 + x252 + x253 + x254 + x255 + x256 + x257 + x258 + x259
 + x260 + x261 + x262 + x263 + x264 + x265 + x266 + x267 + x268 + x269
 + x270 + x271 + x272 + x273 + x274 + x275 + x276 + x277 + x278 + x279
 + x280 + x281 + x282 + x283 + x284 + x285 + x286 + x287 + x288 + x289
 + x290 + x291 + x292 + x293 + x294 + x295 + x296 + x297 + x298 + x299
 + x300 + x301 + x302 + x303 + x304 + x305 + x306 + x307 + x308 + x309
 + x310 + x311 + x312 + x313 + x314 + x315 + x316 + x317 + x318 + x319
 + x320 + x321 + x322 + x323 + x324 + x325 + x326 + x327 + x328 + x329
 + x330 + x331 + x332 + x333 + x334 + x335 + x336 + x337 + x338 + x339
 + x340 + x341 + x342 + x343 + x344 + x345 + x346 + x347 + x348 + x349
 + x350 + x351 + x352 + x353 + x354 + x355 + x356 + x357 + x358 + x359
 + x360 + x361 + x362 + x363 + x364 + x365 + x366 + x367 + x368 + x369
 + x370 + x371 + x372 + x373 + x374 + x375 + x376 + x377 + x378 + x379
 + x380 + x381 + x382 + x383 + x384 + x385 + x386 + x387 + x388 + x389
 + x390 + x391 + x392 + x393 + x394 + x395 + x396 + x397 + x398 + x399
 + x400 + x401 + x402 + x403 + x404 + x405 + x406 + x407 + x408 + x409
 + x410 + x411 + x412 + x413 + x414 + x415 + x416 + x417 + x418 + x419
 + x420 + x421 + x422 + x423 + x424 + x425 + x426 + x427 + x428 + x429
 + x430 + x431 + x432 + x433 + x434 + x435 + x436 + x437 + x438 + x439
 + x440
Subject To
c0:  x0 + x7 + x14 + x21 + x28 + x35 + x42 <= 1
c1:  x1 + x8 + x15 + x22 + x29 + x36 + x43 <= 1
c2:  x2 + x9 + x16 + x23 + x30 + x37 + x44 <= 1
c3:  x3 + x10 + x17 + x24 + x31 + x38 + x45 <= 1
c4:  x4 + x11 + x18 + x25 + x32 + x39 + x46 <= 1
c5:  x5 + x12 + x19 + x26 + x33 + x40 + x47 <= 1
c6:  x6 + x13 + x20 + x27 + x34 + x41 + x48 <= 1
c7:  x49 + x56 + x63 + x70 + x77 + x84 + x91 <= 1
c8:  x50 + x57 + x64 + x71 + x78 + x85 + x92 <= 1
c9:  x51 + x58 + x65 + x72 + x79 + x86 + x93 <= 1
c10:  x52 + x59 + x66 + x73 + x80 + x87 + x94 <= 1
c11:  x53 + x60 + x67 + x74 + x81 + x88 + x95 <= 1
c12:  x54 + x61 + x68 + x75 + x82 + x89 + x96 <= 1
c13:  x55 + x62 + x69 + x76 + x83 + x90 + x97 <= 1
c14:  x0 + x49 + x98 + x105 + x112 + x119 + x126 <= 1
c15:  x1 + x50 + x99 + x106 + x113 + x120 + x127 <= 1
c16:  x2 + x51 + x100 + x107 + x114 + x121 + x128 <= 1
c17:  x3 + x52 + x101 + x108 + x115 + x122 + x129 <= 1
c18:  x4 + x53 + x102 + x109 + x116 + x123 + x130 <= 1
c19:  x5 + x54 + x103 + x110 + x117 + x124 + x131 <= 1
c20:  x6 + x55 + x104 + x111 + x118 + x125 + x132 <= 1
c21:  x7 + x56 + x133 + x140 + x147 + x154 + x161 <= 1
c22:  x8 + x57 + x134 + x141 + x148 + x155 + x162 <= 1
c23:  x9 + x58 + x135 + x142 + x149 + x156 + x163 <= 1
c24:  x10 + x59 + x136 + x143 + x150 + x157 + x164 <= 1
c25:  x11 + x60 + x137 + x144 + x151 + x158 + x165 <= 1
c26:  x12 + x61 + x138 + x145 + x152 + x159 + x166 <= 1
c27:  x13 + x62 + x139 + x146 + x153 + x160 + x167 <= 1
c28:  x14 + x63 + x98 + x133 + x168 + x175 + x182 <= 1
c29:  x15 + x64 + x99 + x134 + x169 + x176 + x183 <= 1
c30:  x16 + x65 + x100 + x135 + x170 + x177 + x184 <= 1
c31:  x17 + x66 + x101 + x136 + x171 + x178 + x185 <= 1
c32:  x18 + x67 + x102 + x137 + x172 + x179 + x186 <= 1
c33:  x19 + x68 + x103 + x138 + x173 + x180 + x187 <= 1
c34:  x20 + x69 + x104 + x139 + x174 + x181 + x188 <= 1
c35:  x21 + x70 + x105 + x140 + x189 + x196 + x203 <= 1
c36:  x22 + x71 + x106 + x141 + x190 + x197 + x204 <= 1
c37:  x23 + x72 + x107 + x142 + x191 + x198 + x205 <= 1
c38:  x24 + x73 + x108 + x143 + x192 + x199 + x206 <= 1
c39:  x25 + x74 + x109 + x144 + x193 + x200 + x207 <= 1
c40:  x26 + x75 + x110 + x145 + x194 + x201 + x208 <= 1
c41:  x27 + x76 + x111 + x146 + x195 + x202 + x209 <= 1
c42:  x28 + x77 + x112 + x147 + x168 + x189 + x210 <= 1
c43:  x29 + x78 + x113 + x148 + x169 + x190 + x211 <= 1
c44:  x30 + x79 + x114 + x149 + x170 + x191 + x212 <= 1
c45:  x31 + x80 + x115 + x150 + x171 + x192 + x213 <= 1
c46:  x32 + x81 + x116 + x151 + x172 + x193 + x214 <= 1
c47:  x33 + x82 + x117 + x152 + x173 + x194 + x215 <= 1
c48:  x34 + x83 + x118 + x153 + x174 + x195 + x216 <= 1
c49:  x35 + x84 + x119 + x154 + x175 + x196 + x210 <= 1
c50:  x36 + x85 + x120 + x155 + x176 + x197 + x211 <= 1
c51:  x37 + x86 + x121 + x156 + x177 + x198 + x212 <= 1
c52:  x38 + x87 + x122 + x157 + x178 + x199 + x213 <= 1
c53:  x39 + x88 + x123 + x158 + x179 + x200 + x214 <= 1
c54:  x40 + x89 + x124 + x159 + x180 + x201 + x215 <= 1
c55:  x41 + x90 + x125 + x160 + x181 + x202 + x216 <= 1
c56:  x42 + x91 + x126 + x161 + x182 + x203 + x217 <= 1
c57:  x43 + x92 + x127 + x162 + x183 + x204 + x218 <= 1
c58:  x44 + x93 + x128 + x163 + x184 + x205 + x219 <= 1
c59:  x45 + x94 + x129 + x164 + x185 + x206 + x220 <= 1
c60:  x46 + x95 + x130 + x165 + x186 + x207 + x221 <= 1
c61:  x47 + x96 + x131 + x166 + x187 + x208 + x222 <= 1
c62:  x48 + x97 + x132 + x167 + x188 + x209 + x223 <= 1
c63:  x224 + x231 + x238 + x245 + x252 + x259 + x266 <= 1
c64:  x225 + x232 + x239 + x246 + x253 + x260 + x267 <= 1
c65:  x226 + x233 + x240 + x247 + x254 + x261 + x268 <= 1
c66:  x227 + x234 + x241 + x248 + x255 + x262 + x269 <= 1
c67:  x228 + x235 + x242 + x249 + x256 + x263 + x270 <= 1
c68:  x229 + x236 + x243 + x250 + x257 + x264 + x271 <= 1
c69:  x230 + x237 + x244 + x251 + x258 + x265 + x272 <= 1
c70:  x224 + x273 + x280 + x287 + x294 + x301 + x308 <= 1
c71:  x225 + x274 + x281 + x288 + x295 + x302 + x309 <= 1
c72:  x226 + x275 + x282 + x289 + x296 + x303 + x310 <= 1
c73:  x227 + x276 + x283 + x290 + x297 + x304 + x311 <= 1
c74:  x228 + x277 + x284 + x291 + x298 + x305 + x312 <= 1
c75:  x229 + x278 + x285 + x292 + x299 + x306 + x313 <= 1
c76:  x230 + x279 + x286 + x293 + x300 + x307 + x314 <= 1
c77:  x273 + x315 + x322 + x329 + x336 + x343 + x350 <= 1
c78:  x274 + x316 + x323 + x330 + x337 + x344 + x351 <= 1
c79:  x275 + x317 + x324 + x331 + x338 + x345 + x352 <= 1
c80:  x276 + x318 + x325 + x332 + x339 + x346 + x353 <= 1
c81:  x277 + x319 + x326 + x333 + x340 + x347 + x354 <= 1
c82:  x278 + x320 + x327 + x334 + x341 + x348 + x355 <= 1
c83:  x279 + x321 + x328 + x335 + x342 + x349 + x356 <= 1
c84:  x231 + x280 + x315 + x357 + x364 + x371 + x378 <= 1
c85:  x232 + x281 + x316 + x358 + x365 + x372 + x379 <= 1
c86:  x233 + x282 + x317 + x359 + x366 + x373 + x380 <= 1
c87:  x234 + x283 + x318 + x360 + x367 + x374 + x381 <= 1
c88:  x235 + x284 + x319 + x361 + x368 + x375 + x382 <= 1
c89:  x236 + x285 + x320 + x362 + x369 + x376 + x383 <= 1
c90:  x237 + x286 + x321 + x363 + x370 + x377 + x384 <= 1
c91:  x238 + x287 + x322 + x357 + x385 + x392 + x399 <= 1
c92:  x239 + x288 + x323 + x358 + x386 + x393 + x400 <= 1
c93:  x240 + x289 + x324 + x359 + x387 + x394 + x401 <= 1
c94:  x241 + x290 + x325 + x360 + x388 + x395 + x402 <= 1
c95:  x242 + x291 + x326 + x361 + x389 + x396 + x403 <= 1
c96:  x243 + x292 + x327 + x362 + x390 + x397 + x404 <= 1
c97:  x244 + x293 + x328 + x363 + x391 + x398 + x405 <= 1
c98:  x245 + x294 + x329 + x364 + x385 + x406 + x413 <= 1
c99:  x246 + x295 + x330 + x365 + x386 + x407 + x414 <= 1
c100:  x247 + x296 + x331 + x366 + x387 + x408 + x415 <= 1
c101:  x248 + x297 + x332 + x367 + x388 + x409 + x416 <= 1
c102:  x249 + x298 + x333 + x368 + x389 + x410 + x417 <= 1
c103:  x250 + x299 + x334 + x369 + x390 + x411 + x418 <= 1
c104:  x251 + x300 + x335 + x370 + x391 + x412 + x419 <= 1
c105:  x252 + x336 + x371 + x392 + x406 + x420 + x427 <= 1
c106:  x253 + x337 + x372 + x393 + x407 + x421 + x428 <= 1
c107:  x254 + x338 + x373 + x394 + x408 + x422 + x429 <= 1
c108:  x255 + x339 + x374 + x395 + x409 + x423 + x430 <= 1
c109:  x256 + x340 + x375 + x396 + x410 + x424 + x431 <= 1
c110:  x257 + x341 + x376 + x397 + x411 + x425 + x432 <= 1
c111:  x258 + x342 + x377 + x398 + x412 + x426 + x433 <= 1
c112:  x217 + x259 + x301 + x343 + x399 + x420 + x434 <= 1
c113:  x218 + x260 + x302 + x344 + x400 + x421 + x435 <= 1
c114:  x219 + x261 + x303 + x345 + x401 + x422 + x436 <= 1
c115:  x220 + x262 + x304 + x346 + x402 + x423 + x437 <= 1
c116:  x221 + x263 + x305 + x347 + x403 + x424 + x438 <= 1
c117:  x222 + x264 + x306 + x348 + x404 + x425 + x439 <= 1
c118:  x223 + x265 + x307 + x349 + x405 + x426 + x440 <= 1
c119:  x266 + x308 + x350 + x378 + x413 + x427 + x434 <= 1
c120:  x267 + x309 + x351 + x379 + x414 + x428 + x435 <= 1
c121:  x268 + x310 + x352 + x380 + x415 + x429 + x436 <= 1
c122:  x269 + x311 + x353 + x381 + x416 + x430 + x437 <= 1
c123:  x270 + x312 + x354 + x382 + x417 + x431 + x438 <= 1
c124:  x271 + x313 + x355 + x383 + x418 + x432 + x439 <= 1
c125:  x272 + x314 + x356 + x384 + x419 + x433 + x440 <= 1
c126:  x0 + x1 + x2 + x3 + x4 + x5 + x6 = 1
c127:  x7 + x8 + x9 + x10 + x11 + x12 + x13 = 1
c128:  x14 + x15 + x16 + x17 + x18 + x19 + x20 = 1
c129:  x21 + x22 + x23 + x24 + x25 + x26 + x27 = 1
c130:  x28 + x29 + x30 + x31 + x32 + x33 + x34 = 1
c131:  x35 + x36 + x37 + x38 + x39 + x40 + x41 = 1
c132:  x42 + x43 + x44 + x45 + x46 + x47 + x48 = 1
c133:  x49 + x50 + x51 + x52 + x53 + x54 + x55 = 1
c134:  x56 + x57 + x58 + x59 + x60 + x61 + x62 = 1
c135:  x63 + x64 + x65 + x66 + x67 + x68 + x69 = 1
c136:  x70 + x71 + x72 + x73 + x74 + x75 + x76 = 1
c137:  x77 + x78 + x79 + x80 + x81 + x82 + x83 = 1
c138:  x84 + x85 + x86 + x87 + x88 + x89 + x90 = 1
c139:  x91 + x92 + x93 + x94 + x95 + x96 + x97 = 1
c140:  x98 + x99 + x100 + x101 + x102 + x103 + x104 = 1
c141:  x105 + x106 + x107 + x108 + x109 + x110 + x111 = 1
c142:  x112 + x113 + x114 + x115 + x116 + x117 + x118 = 1
c143:  x119 + x120 + x121 + x122 + x123 + x124 + x125 = 1
c144:  x126 + x127 + x128 + x129 + x130 + x131 + x132 = 1
c145:  x133 + x134 + x135 + x136 + x137 + x138 + x139 = 1
c146:  x140 + x141 + x142 + x143 + x144 + x145 + x146 = 1
c147:  x147 + x148 + x149 + x150 + x151 + x152 + x153 = 1
c148:  x154 + x155 + x156 + x157 + x158 + x159 + x160 = 1
c149:  x161 + x162 + x163 + x164 + x165 + x166 + x167 = 1
c150:  x168 + x169 + x170 + x171 + x172 + x173 + x174 = 1
c151:  x175 + x176 + x177 + x178 + x179 + x180 + x181 = 1
c152:  x182 + x183 + x184 + x185 + x186 + x187 + x188 = 1
c153:  x189 + x190 + x191 + x192 + x193 + x194 + x195 = 1
c154:  x196 + x197 + x198 + x199 + x200 + x201 + x202 = 1
c155:  x203 + x204 + x205 + x206 + x207 + x208 + x209 = 1
c156:  x210 + x211 + x212 + x213 + x214 + x215 + x216 = 1
c157:  x217 + x218 + x219 + x220 + x221 + x222 + x223 = 1
c158:  x224 + x225 + x226 + x227 + x228 + x229 + x230 = 1
c159:  x231 + x232 + x233 + x234 + x235 + x236 + x237 = 1
c160:  x238 + x239 + x240 + x241 + x242 + x243 + x244 = 1
c161:  x245 + x246 + x247 + x248 + x249 + x250 + x251 = 1
c162:  x252 + x253 + x254 + x255 + x256 + x257 + x258 = 1
c163:  x259 + x260 + x261 + x262 + x263 + x264 + x265 = 1
c164:  x266 + x267 + x268 + x269 + x270 + x271 + x272 = 1
c165:  x273 + x274 + x275 + x276 + x277 + x278 + x279 = 1
c166:  x280 + x281 + x282 + x283 + x284 + x285 + x286 = 1
c167:  x287 + x288 + x289 + x290 + x291 + x292 + x293 = 1
c168:  x294 + x295 + x296 + x297 + x298 + x299 + x300 = 1
c169:  x301 + x302 + x303 + x304 + x305 + x306 + x307 = 1
c170:  x308 + x309 + x310 + x311 + x312 + x313 + x314 = 1
c171:  x315 + x316 + x317 + x318 + x319 + x320 + x321 = 1
c172:  x322 + x323 + x324 + x325 + x326 + x327 + x328 = 1
c173:  x329 + x330 + x331 + x332 + x333 + x334 + x335 = 1
c174:  x336 + x337 + x338 + x339 + x340 + x341 + x342 = 1
c175:  x343 + x344 + x345 + x346 + x347 + x348 + x349 = 1
c176:  x350 + x351 + x352 + x353 + x354 + x355 + x356 = 1
c177:  x357 + x358 + x359 + x360 + x361 + x362 + x363 = 1
c178:  x364 + x365 + x366 + x367 + x368 + x369 + x370 = 1
c179:  x371 + x372 + x373 + x374 + x375 + x376 + x377 = 1
c180:  x378 + x379 + x380 + x381 + x382 + x383 + x384 = 1
c181:  x385 + x386 + x387 + x388 + x389 + x390 + x391 = 1
c182:  x392 + x393 + x394 + x395 + x396 + x397 + x398 = 1
c183:  x399 + x400 + x401 + x402 + x403 + x404 + x405 = 1
c184:  x406 + x407 + x408 + x409 + x410 + x411 + x412 = 1
c185:  x413 + x414 + x415 + x416 + x417 + x418 + x419 = 1
c186:  x420 + x421 + x422 + x423 + x424 + x425 + x426 = 1
c187:  x427 + x428 + x429 + x430 + x431 + x432 + x433 = 1
c188:  x434 + x435 + x436 + x437 + x438 + x439 + x440 = 1
Bounds
 0 <= x0 <= 1
 0 <= x1 <= 1
 0 <= x2 <= 1
 0 <= x3 <= 1
 0 <= x4 <= 1
 0 <= x5 <= 1
 0 <= x6 <= 1
 0 <= x7 <= 1
 0 <= x8 <= 1
 0 <= x9 <= 1
 0 <= x10 <= 1
 0 <= x11 <= 1
 0 <= x12 <= 1
 0 <= x13 <= 1
 0 <= x14 <= 1
 0 <= x15 <= 1
 0 <= x16 <= 1
 0 <= x17 <= 1
 0 <= x18 <= 1
 0 <= x19 <= 1
 0 <= x20 <= 1
 0 <= x21 <= 1
 0 <= x22 <= 1
 0 <= x23 <= 1
 0 <= x24 <= 1
 0 <= x25 <= 1
 0 <= x26 <= 1
 0 <= x27 <= 1
 0 <= x28 <= 1
 0 <= x29 <= 1
 0 <= x30 <= 1
 0 <= x31 <= 1
 0 <= x32 <= 1
 0 <= x33 <= 1
 0 <= x34 <= 1
 0 <= x35 <= 1
 0 <= x36 <= 1
 0 <= x37 <= 1
 0 <= x38 <= 1
 0 <= x39 <= 1
 0 <= x40 <= 1
 0 <= x41 <= 1
 0 <= x42 <= 1
 0 <= x43 <= 1
 0 <= x44 <= 1
 0 <= x45 <= 1
 0 <= x46 <= 1
 0 <= x47 <= 1
 0 <= x48 <= 1
 0 <= x49 <= 1
 0 <= x50 <= 1
 0 <= x51 <= 1
 0 <= x52 <= 1
 0 <= x53 <= 1
 0 <= x54 <= 1
 0 <= x55 <= 1
 0 <= x56 <= 1
 0 <= x57 <= 1
 0 <= x58 <= 1
 0 <= x59 <= 1
 0 <= x60 <= 1
 0 <= x61 <= 1
 0 <= x62 <= 1
 0 <= x63 <= 1
 0 <= x64 <= 1
 0 <= x65 <= 1
 0 <= x66 <= 1
 0 <= x67 <= 1
 0 <= x68 <= 1
 0 <= x69 <= 1
 0 <= x70 <= 1
 0 <= x71 <= 1
 0 <= x72 <= 1
 0 <= x73 <= 1
 0 <= x74 <= 1
 0 <= x75 <= 1
 0 <= x76 <= 1
 0 <= x77 <= 1
 0 <= x78 <= 1
 0 <= x79 <= 1
 0 <= x80 <= 1
 0 <= x81 <= 1
 0 <= x82 <= 1
 0 <= x83 <= 1
 0 <= x84 <= 1
 0 <= x85 <= 1
 0 <= x86 <= 1
 0 <= x87 <= 1
 0 <= x88 <= 1
 0 <= x89 <= 1
 0 <= x90 <= 1
 0 <= x91 <= 1
 0 <= x92 <= 1
 0 <= x93 <= 1
 0 <= x94 <= 1
 0 <= x95 <= 1
 0 <= x96 <= 1
 0 <= x97 <= 1
 0 <= x98 <= 1
 0 <= x99 <= 1
 0 <= x100 <= 1
 0 <= x101 <= 1
 0 <= x102 <= 1
 0 <= x103 <= 1
 0 <= x104 <= 1
 0 <= x105 <= 1
 0 <= x106 <= 1
 0 <= x107 <= 1
 0 <= x108 <= 1
 0 <= x109 <= 1
 0 <= x110 <= 1
 0 <= x111 <= 1
 0 <= x112 <= 1
 0 <= x113 <= 1
 0 <= x114 <= 1
 0 <= x115 <= 1
 0 <= x116 <= 1
 0 <= x117 <= 1
 0 <= x118 <= 1
 0 <= x119 <= 1
 0 <= x120 <= 1
 0 <= x121 <= 1
 0 <= x122 <= 1
 0 <= x123 <= 1
 0 <= x124 <= 1
 0 <= x125 <= 1
 0 <= x126 <= 1
 0 <= x127 <= 1
 0 <= x128 <= 1
 0 <= x129 <= 1
 0 <= x130 <= 1
 0 <= x131 <= 1
 0 <= x132 <= 1
 0 <= x133 <= 1
 0 <= x134 <= 1
 0 <= x135 <= 1
 0 <= x136 <= 1
 0 <= x137 <= 1
 0 <= x138 <= 1
 0 <= x139 <= 1
 0 <= x140 <= 1
 0 <= x141 <= 1
 0 <= x142 <= 1
 0 <= x143 <= 1
 0 <= x144 <= 1
 0 <= x145 <= 1
 0 <= x146 <= 1
 0 <= x147 <= 1
 0 <= x148 <= 1
 0 <= x149 <= 1
 0 <= x150 <= 1
 0 <= x151 <= 1
 0 <= x152 <= 1
 0 <= x153 <= 1
 0 <= x154 <= 1
 0 <= x155 <= 1
 0 <= x156 <= 1
 0 <= x157 <= 1
 0 <= x158 <= 1
 0 <= x159 <= 1
 0 <= x160 <= 1
 0 <= x161 <= 1
 0 <= x162 <= 1
 0 <= x163 <= 1
 0 <= x164 <= 1
 0 <= x165 <= 1
 0 <= x166 <= 1
 0 <= x167 <= 1
 0 <= x168 <= 1
 0 <= x169 <= 1
 0 <= x170 <= 1
 0 <= x171 <= 1
 0 <= x172 <= 1
 0 <= x173 <= 1
 0 <= x174 <= 1
 0 <= x175 <= 1
 0 <= x176 <= 1
 0 <= x177 <= 1
 0 <= x178 <= 1
 0 <= x179 <= 1
 0 <= x180 <= 1
 0 <= x181 <= 1
 0 <= x182 <= 1
 0 <= x183 <= 1
 0 <= x184 <= 1
 0 <= x185 <= 1
 0 <= x186 <= 1
 0 <= x187 <= 1
 0 <= x188 <= 1
 0 <= x189 <= 1
 0 <= x190 <= 1
 0 <= x191 <= 1
 0 <= x192 <= 1
 0 <= x193 <= 1
 0 <= x194 <= 1
 0 <= x195 <= 1
 0 <= x196 <= 1
 0 <= x197 <= 1
 0 <= x198 <= 1
 0 <= x199 <= 1
 0 <= x200 <= 1
 0 <= x201 <= 1
 0 <= x202 <= 1
 0 <= x203 <= 1
 0 <= x204 <= 1
 0 <= x205 <= 1
 0 <= x206 <= 1
 0 <= x207 <= 1
 0 <= x208 <= 1
 0 <= x209 <= 1
 0 <= x210 <= 1
 0 <= x211 <= 1
 0 <= x212 <= 1
 0 <= x213 <= 1
 0 <= x214 <= 1
 0 <= x215 <= 1
 0 <= x216 <= 1
 0 <= x217 <= 1
 0 <= x218 <= 1
 0 <= x219 <= 1
 0 <= x220 <= 1
 0 <= x221 <= 1
 0 <= x222 <= 1
 0 <= x223 <= 1
 0 <= x224 <= 1
 0 <= x225 <= 1
 0 <= x226 <= 1
 0 <= x227 <= 1
 0 <= x228 <= 1
 0 <= x229 <= 1
 0 <= x230 <= 1
 0 <= x231 <= 1
 0 <= x232 <= 1
 0 <= x233 <= 1
 0 <= x234 <= 1
 0 <= x235 <= 1
 0 <= x236 <= 1
 0 <= x237 <= 1
 0 <= x238 <= 1
 0 <= x239 <= 1
 0 <= x240 <= 1
 0 <= x241 <= 1
 0 <= x242 <= 1
 0 <= x243 <= 1
 0 <= x244 <= 1
 0 <= x245 <= 1
 0 <= x246 <= 1
 0 <= x247 <= 1
 0 <= x248 <= 1
 0 <= x249 <= 1
 0 <= x250 <= 1
 0 <= x251 <= 1
 0 <= x252 <= 1
 0 <= x253 <= 1
 0 <= x254 <= 1
 0 <= x255 <= 1
 0 <= x256 <= 1
 0 <= x257 <= 1
 0 <= x258 <= 1
 0 <= x259 <= 1
 0 <= x260 <= 1
 0 <= x261 <= 1
 0 <= x262 <= 1
 0 <= x263 <= 1
 0 <= x264 <= 1
 0 <= x265 <= 1
 0 <= x266 <= 1
 0 <= x267 <= 1
 0 <= x268 <= 1
 0 <= x269 <= 1
 0 <= x270 <= 1
 0 <= x271 <= 1
 0 <= x272 <= 1
 0 <= x273 <= 1
 0 <= x274 <= 1
 0 <= x275 <= 1
 0 <= x276 <= 1
 0 <= x277 <= 1
 0 <= x278 <= 1
 0 <= x279 <= 1
 0 <= x280 <= 1
 0 <= x281 <= 1
 0 <= x282 <= 1
 0 <= x283 <= 1
 0 <= x284 <= 1
 0 <= x285 <= 1
 0 <= x286 <= 1
 0 <= x287 <= 1
 0 <= x288 <= 1
 0 <= x289 <= 1
 0 <= x290 <= 1
 0 <= x291 <= 1
 0 <= x292 <= 1
 0 <= x293 <= 1
 0 <= x294 <= 1
 0 <= x295 <= 1
 0 <= x296 <= 1
 0 <= x297 <= 1
 0 <= x298 <= 1
 0 <= x299 <= 1
 0 <= x300 <= 1
 0 <= x301 <= 1
 0 <= x302 <= 1
 0 <= x303 <= 1
 0 <= x304 <= 1
 0 <= x305 <= 1
 0 <= x306 <= 1
 0 <= x307 <= 1
 0 <= x308 <= 1
 0 <= x309 <= 1
 0 <= x310 <= 1
 0 <= x311 <= 1
 0 <= x312 <= 1
 0 <= x313 <= 1
 0 <= x314 <= 1
 0 <= x315 <= 1
 0 <= x316 <= 1
 0 <= x317 <= 1
 0 <= x318 <= 1
 0 <= x319 <= 1
 0 <= x320 <= 1
 0 <= x321 <= 1
 0 <= x322 <= 1
 0 <= x323 <= 1
 0 <= x324 <= 1
 0 <= x325 <= 1
 0 <= x326 <= 1
 0 <= x327 <= 1
 0 <= x328 <= 1
 0 <= x329 <= 1
 0 <= x330 <= 1
 0 <= x331 <= 1
 0 <= x332 <= 1
 0 <= x333 <= 1
 0 <= x334 <= 1
 0 <= x335 <= 1
 0 <= x336 <= 1
 0 <= x337 <= 1
 0 <= x338 <= 1
 0 <= x339 <= 1
 0 <= x340 <= 1
 0 <= x341 <= 1
 0 <= x342 <= 1
 0 <= x343 <= 1
 0 <= x344 <= 1
 0 <= x345 <= 1
 0 <= x346 <= 1
 0 <= x347 <= 1
 0 <= x348 <= 1
 0 <= x349 <= 1
 0 <= x350 <= 1
 0 <= x351 <= 1
 0 <= x352 <= 1
 0 <= x353 <= 1
 0 <= x354 <= 1
 0 <= x355 <= 1
 0 <= x356 <= 1
 0 <= x357 <= 1
 0 <= x358 <= 1
 0 <= x359 <= 1
 0 <= x360 <= 1
 0 <= x361 <= 1
 0 <= x362 <= 1
 0 <= x363 <= 1
 0 <= x364 <= 1
 0 <= x365 <= 1
 0 <= x366 <= 1
 0 <= x367 <= 1
 0 <= x368 <= 1
 0 <= x369 <= 1
 0 <= x370 <= 1
 0 <= x371 <= 1
 0 <= x372 <= 1
 0 <= x373 <= 1
 0 <= x374 <= 1
 0 <= x375 <= 1
 0 <= x376 <= 1
 0 <= x377 <= 1
 0 <= x378 <= 1
 0 <= x379 <= 1
 0 <= x380 <= 1
 0 <= x381 <= 1
 0 <= x382 <= 1
 0 <= x383 <= 1
 0 <= x384 <= 1
 0 <= x385 <= 1
 0 <= x386 <= 1
 0 <= x387 <= 1
 0 <= x388 <= 1
 0 <= x389 <= 1
 0 <= x390 <= 1
 0 <= x391 <= 1
 0 <= x392 <= 1
 0 <= x393 <= 1
 0 <= x394 <= 1
 0 <= x395 <= 1
 0 <= x396 <= 1
 0 <= x397 <= 1
 0 <= x398 <= 1
 0 <= x399 <= 1
 0 <= x400 <= 1
 0 <= x401 <= 1
 0 <= x402 <= 1
 0 <= x403 <= 1
 0 <= x404 <= 1
 0 <= x405 <= 1
 0 <= x406 <= 1
 0 <= x407 <= 1
 0 <= x408 <= 1
 0 <= x409 <= 1
 0 <= x410 <= 1
 0 <= x411 <= 1
 0 <= x412 <= 1
 0 <= x413 <= 1
 0 <= x414 <= 1
 0 <= x415 <= 1
 0 <= x416 <= 1
 0 <= x417 <= 1
 0 <= x418 <= 1
 0 <= x419 <= 1
 0 <= x420 <= 1
 0 <= x421 <= 1
 0 <= x422 <= 1
 0 <= x423 <= 1
 0 <= x424 <= 1
 0 <= x425 <= 1
 0 <= x426 <= 1
 0 <= x427 <= 1
 0 <= x428 <= 1
 0 <= x429 <= 1
 0 <= x430 <= 1
 0 <= x431 <= 1
 0 <= x432 <= 1
 0 <= x433 <= 1
 0 <= x434 <= 1
 0 <= x435 <= 1
 0 <= x436 <= 1
 0 <= x437 <= 1
 0 <= x438 <= 1
 0 <= x439 <= 1
 0 <= x440 <= 1
Integers
x0 x1 x2 x3 x4 x5 x6 x7 x8 x9 
x10 x11 x12 x13 x14 x15 x16 x17 x18 x19 
x20 x21 x22 x23 x24 x25 x26 x27 x28 x29 
x30 x31 x32 x33 x34 x35 x36 x37 x38 x39 
x40 x41 x42 x43 x44 x45 x46 x47 x48 x49 
x50 x51 x52 x53 x54 x55 x56 x57 x58 x59 
x60 x61 x62 x63 x64 x65 x66 x67 x68 x69 
x70 x71 x72 x73 x74 x75 x76 x77 x78 x79 
x80 x81 x82 x83 x84 x85 x86 x87 x88 x89 
x90 x91 x92 x93 x94 x95 x96 x97 x98 x99 
x100 x101 x102 x103 x104 x105 x106 x107 x108 x109 
x110 x111 x112 x113 x114 x115 x116 x117 x118 x119 
x120 x121 x122 x123 x124 x125 x126 x127 x128 x129 
x130 x131 x132 x133 x134 x135 x136 x137 x138 x139 
x140 x141 x142 x143 x144 x145 x146 x147 x148 x149 
x150 x151 x152 x153 x154 x155 x156 x157 x158 x159 
x160 x161 x162 x163 x164 x165 x166 x167 x168 x169 
x170 x171 x172 x173 x174 x175 x176 x177 x178 x179 
x180 x181 x182 x183 x184 x185 x186 x187 x188 x189 
x190 x191 x192 x193 x194 x195 x196 x197 x198 x199 
x200 x201 x202 x203 x204 x205 x206 x207 x208 x209 
x210 x211 x212 x213 x214 x215 x216 x217 x218 x219 
x220 x221 x222 x223 x224 x225 x226 x227 x228 x229 
x230 x231 x232 x233 x234 x235 x236 x237 x238 x239 
x240 x241 x242 x243 x244 x245 x246 x247 x248 x249 
x250 x251 x252 x253 x254 x255 x256 x257 x258 x259 
x260 x261 x262 x263 x264 x265 x266 x267 x268 x269 
x270 x271 x272 x273 x274 x275 x276 x277 x278 x279 
x280 x281 x282 x283 x284 x285 x286 x287 x288 x289 
x290 x291 x292 x293 x294 x295 x296 x297 x298 x299 
x300 x301 x302 x303 x304 x305 x306 x307 x308 x309 
x310 x311 x312 x313 x314 x315 x316 x317 x318 x319 
x320 x321 x322 x323 x324 x325 x326 x327 x328 x329 
x330 x331 x332 x333 x334 x335 x336 x337 x338 x339 
x340 x341 x342 x343 x344 x345 x346 x347 x348 x349 
x350 x351 x352 x353 x354 x355 x356 x357 x358 x359 
x360 x361 x362 x363 x364 x365 x366 x367 x368 x369 
x370 x371 x372 x373 x374 x375 x376 x377 x378 x379 
x380 x381 x382 x383 x384 x385 x386 x387 x388 x389 
x390 x391 x392 x393 x394 x395 x396 x397 x398 x399 
x400 x401 x402 x403 x404 x405 x406 x407 x408 x409 
x410 x411 x412 x413 x414 x415 x416 x417 x418 x419 
x420 x421 x422 x423 x424 x425 x426 x427 x428 x429 
x430 x431 x432 x433 x434 x435 x436 x437 x438 x439 
x440 
End
